p cnf 140 644
1 21 0
-1 -41 45 0
-1 -42 46 0
-1 -43 47 0
-1 -44 48 0
-21 -41 61 0
-21 -42 62 0
-21 -43 63 0
-21 -44 64 0
41 42 43 44 0
-41 -42 0
-41 -43 0
-41 -44 0
-42 -43 0
-42 -44 0
-43 -44 0
21 0
1 0
2 1 25 0
-1 -45 41 0
-1 -46 42 0
-1 -47 43 0
-1 -48 44 0
-2 -45 49 0
-2 -46 50 0
-2 -47 51 0
-2 -48 52 0
-25 -45 65 0
-25 -46 66 0
-25 -47 67 0
-25 -48 68 0
45 46 47 48 0
-45 -46 0
-45 -47 0
-45 -48 0
-46 -47 0
-46 -48 0
-47 -48 0
46 0
-1 -2 0
-1 -25 0
-2 -25 0
3 2 29 0
-2 -49 45 0
-2 -50 46 0
-2 -51 47 0
-2 -52 48 0
-3 -49 53 0
-3 -50 54 0
-3 -51 55 0
-3 -52 56 0
-29 -49 69 0
-29 -50 70 0
-29 -51 71 0
-29 -52 72 0
49 50 51 52 0
-49 -50 0
-49 -51 0
-49 -52 0
-50 -51 0
-50 -52 0
-51 -52 0
2 3 0
2 29 0
3 29 0
-2 -3 -29 0
4 3 33 0
-3 -53 49 0
-3 -54 50 0
-3 -55 51 0
-3 -56 52 0
-4 -53 57 0
-4 -54 58 0
-4 -55 59 0
-4 -56 60 0
-33 -53 73 0
-33 -54 74 0
-33 -55 75 0
-33 -56 76 0
53 54 55 56 0
-53 -54 0
-53 -55 0
-53 -56 0
-54 -55 0
-54 -56 0
-55 -56 0
3 4 0
3 33 0
4 33 0
-3 -4 -33 0
4 37 0
-4 -57 53 0
-4 -58 54 0
-4 -59 55 0
-4 -60 56 0
-37 -57 77 0
-37 -58 78 0
-37 -59 79 0
-37 -60 80 0
57 58 59 60 0
-57 -58 0
-57 -59 0
-57 -60 0
-58 -59 0
-58 -60 0
-59 -60 0
37 0
4 0
5 21 22 0
-5 -61 65 0
-5 -62 66 0
-5 -63 67 0
-5 -64 68 0
-21 -61 41 0
-21 -62 42 0
-21 -63 43 0
-21 -64 44 0
-22 -61 81 0
-22 -62 82 0
-22 -63 83 0
-22 -64 84 0
61 62 63 64 0
-61 -62 0
-61 -63 0
-61 -64 0
-62 -63 0
-62 -64 0
-63 -64 0
5 21 0
5 22 0
21 22 0
-5 -21 -22 0
5 6 25 26 0
-5 -65 61 0
-5 -66 62 0
-5 -67 63 0
-5 -68 64 0
-6 -65 69 0
-6 -66 70 0
-6 -67 71 0
-6 -68 72 0
-25 -65 45 0
-25 -66 46 0
-25 -67 47 0
-25 -68 48 0
-26 -65 85 0
-26 -66 86 0
-26 -67 87 0
-26 -68 88 0
65 66 67 68 0
-65 -66 0
-65 -67 0
-65 -68 0
-66 -67 0
-66 -68 0
-67 -68 0
5 6 25 0
5 6 26 0
5 25 26 0
6 25 26 0
-5 -6 -25 0
-5 -6 -26 0
-5 -25 -26 0
-6 -25 -26 0
6 7 29 30 0
-6 -69 65 0
-6 -70 66 0
-6 -71 67 0
-6 -72 68 0
-7 -69 73 0
-7 -70 74 0
-7 -71 75 0
-7 -72 76 0
-29 -69 49 0
-29 -70 50 0
-29 -71 51 0
-29 -72 52 0
-30 -69 89 0
-30 -70 90 0
-30 -71 91 0
-30 -72 92 0
69 70 71 72 0
-69 -70 0
-69 -71 0
-69 -72 0
-70 -71 0
-70 -72 0
-71 -72 0
6 7 29 0
6 7 30 0
6 29 30 0
7 29 30 0
-6 -7 -29 0
-6 -7 -30 0
-6 -29 -30 0
-7 -29 -30 0
7 8 33 34 0
-7 -73 69 0
-7 -74 70 0
-7 -75 71 0
-7 -76 72 0
-8 -73 77 0
-8 -74 78 0
-8 -75 79 0
-8 -76 80 0
-33 -73 53 0
-33 -74 54 0
-33 -75 55 0
-33 -76 56 0
-34 -73 93 0
-34 -74 94 0
-34 -75 95 0
-34 -76 96 0
73 74 75 76 0
-73 -74 0
-73 -75 0
-73 -76 0
-74 -75 0
-74 -76 0
-75 -76 0
76 0
-7 -8 0
-7 -33 0
-7 -34 0
-8 -33 0
-8 -34 0
-33 -34 0
8 37 38 0
-8 -77 73 0
-8 -78 74 0
-8 -79 75 0
-8 -80 76 0
-37 -77 57 0
-37 -78 58 0
-37 -79 59 0
-37 -80 60 0
-38 -77 97 0
-38 -78 98 0
-38 -79 99 0
-38 -80 100 0
77 78 79 80 0
-77 -78 0
-77 -79 0
-77 -80 0
-78 -79 0
-78 -80 0
-79 -80 0
8 37 0
8 38 0
37 38 0
-8 -37 -38 0
9 22 23 0
-9 -81 85 0
-9 -82 86 0
-9 -83 87 0
-9 -84 88 0
-22 -81 61 0
-22 -82 62 0
-22 -83 63 0
-22 -84 64 0
-23 -81 101 0
-23 -82 102 0
-23 -83 103 0
-23 -84 104 0
81 82 83 84 0
-81 -82 0
-81 -83 0
-81 -84 0
-82 -83 0
-82 -84 0
-83 -84 0
9 22 0
9 23 0
22 23 0
-9 -22 -23 0
9 10 26 27 0
-9 -85 81 0
-9 -86 82 0
-9 -87 83 0
-9 -88 84 0
-10 -85 89 0
-10 -86 90 0
-10 -87 91 0
-10 -88 92 0
-26 -85 65 0
-26 -86 66 0
-26 -87 67 0
-26 -88 68 0
-27 -85 105 0
-27 -86 106 0
-27 -87 107 0
-27 -88 108 0
85 86 87 88 0
-85 -86 0
-85 -87 0
-85 -88 0
-86 -87 0
-86 -88 0
-87 -88 0
87 0
-9 -10 0
-9 -26 0
-9 -27 0
-10 -26 0
-10 -27 0
-26 -27 0
10 11 30 31 0
-10 -89 85 0
-10 -90 86 0
-10 -91 87 0
-10 -92 88 0
-11 -89 93 0
-11 -90 94 0
-11 -91 95 0
-11 -92 96 0
-30 -89 69 0
-30 -90 70 0
-30 -91 71 0
-30 -92 72 0
-31 -89 109 0
-31 -90 110 0
-31 -91 111 0
-31 -92 112 0
89 90 91 92 0
-89 -90 0
-89 -91 0
-89 -92 0
-90 -91 0
-90 -92 0
-91 -92 0
92 0
-10 -11 0
-10 -30 0
-10 -31 0
-11 -30 0
-11 -31 0
-30 -31 0
11 12 34 35 0
-11 -93 89 0
-11 -94 90 0
-11 -95 91 0
-11 -96 92 0
-12 -93 97 0
-12 -94 98 0
-12 -95 99 0
-12 -96 100 0
-34 -93 73 0
-34 -94 74 0
-34 -95 75 0
-34 -96 76 0
-35 -93 113 0
-35 -94 114 0
-35 -95 115 0
-35 -96 116 0
93 94 95 96 0
-93 -94 0
-93 -95 0
-93 -96 0
-94 -95 0
-94 -96 0
-95 -96 0
94 0
-11 -12 0
-11 -34 0
-11 -35 0
-12 -34 0
-12 -35 0
-34 -35 0
12 38 39 0
-12 -97 93 0
-12 -98 94 0
-12 -99 95 0
-12 -100 96 0
-38 -97 77 0
-38 -98 78 0
-38 -99 79 0
-38 -100 80 0
-39 -97 117 0
-39 -98 118 0
-39 -99 119 0
-39 -100 120 0
97 98 99 100 0
-97 -98 0
-97 -99 0
-97 -100 0
-98 -99 0
-98 -100 0
-99 -100 0
12 38 0
12 39 0
38 39 0
-12 -38 -39 0
13 23 24 0
-13 -101 105 0
-13 -102 106 0
-13 -103 107 0
-13 -104 108 0
-23 -101 81 0
-23 -102 82 0
-23 -103 83 0
-23 -104 84 0
-24 -101 121 0
-24 -102 122 0
-24 -103 123 0
-24 -104 124 0
101 102 103 104 0
-101 -102 0
-101 -103 0
-101 -104 0
-102 -103 0
-102 -104 0
-103 -104 0
103 0
-13 -23 0
-13 -24 0
-23 -24 0
13 14 27 28 0
-13 -105 101 0
-13 -106 102 0
-13 -107 103 0
-13 -108 104 0
-14 -105 109 0
-14 -106 110 0
-14 -107 111 0
-14 -108 112 0
-27 -105 85 0
-27 -106 86 0
-27 -107 87 0
-27 -108 88 0
-28 -105 125 0
-28 -106 126 0
-28 -107 127 0
-28 -108 128 0
105 106 107 108 0
-105 -106 0
-105 -107 0
-105 -108 0
-106 -107 0
-106 -108 0
-107 -108 0
13 14 27 0
13 14 28 0
13 27 28 0
14 27 28 0
-13 -14 -27 0
-13 -14 -28 0
-13 -27 -28 0
-14 -27 -28 0
14 15 31 32 0
-14 -109 105 0
-14 -110 106 0
-14 -111 107 0
-14 -112 108 0
-15 -109 113 0
-15 -110 114 0
-15 -111 115 0
-15 -112 116 0
-31 -109 89 0
-31 -110 90 0
-31 -111 91 0
-31 -112 92 0
-32 -109 129 0
-32 -110 130 0
-32 -111 131 0
-32 -112 132 0
109 110 111 112 0
-109 -110 0
-109 -111 0
-109 -112 0
-110 -111 0
-110 -112 0
-111 -112 0
14 15 31 0
14 15 32 0
14 31 32 0
15 31 32 0
-14 -15 -31 0
-14 -15 -32 0
-14 -31 -32 0
-15 -31 -32 0
15 16 35 36 0
-15 -113 109 0
-15 -114 110 0
-15 -115 111 0
-15 -116 112 0
-16 -113 117 0
-16 -114 118 0
-16 -115 119 0
-16 -116 120 0
-35 -113 93 0
-35 -114 94 0
-35 -115 95 0
-35 -116 96 0
-36 -113 133 0
-36 -114 134 0
-36 -115 135 0
-36 -116 136 0
113 114 115 116 0
-113 -114 0
-113 -115 0
-113 -116 0
-114 -115 0
-114 -116 0
-115 -116 0
15 16 35 0
15 16 36 0
15 35 36 0
16 35 36 0
-15 -16 -35 0
-15 -16 -36 0
-15 -35 -36 0
-16 -35 -36 0
16 39 40 0
-16 -117 113 0
-16 -118 114 0
-16 -119 115 0
-16 -120 116 0
-39 -117 97 0
-39 -118 98 0
-39 -119 99 0
-39 -120 100 0
-40 -117 137 0
-40 -118 138 0
-40 -119 139 0
-40 -120 140 0
117 118 119 120 0
-117 -118 0
-117 -119 0
-117 -120 0
-118 -119 0
-118 -120 0
-119 -120 0
16 39 0
16 40 0
39 40 0
-16 -39 -40 0
17 24 0
-17 -121 125 0
-17 -122 126 0
-17 -123 127 0
-17 -124 128 0
-24 -121 101 0
-24 -122 102 0
-24 -123 103 0
-24 -124 104 0
121 122 123 124 0
-121 -122 0
-121 -123 0
-121 -124 0
-122 -123 0
-122 -124 0
-123 -124 0
121 0
-24 -17 0
18 28 17 0
-17 -125 121 0
-17 -126 122 0
-17 -127 123 0
-17 -128 124 0
-18 -125 129 0
-18 -126 130 0
-18 -127 131 0
-18 -128 132 0
-28 -125 105 0
-28 -126 106 0
-28 -127 107 0
-28 -128 108 0
125 126 127 128 0
-125 -126 0
-125 -127 0
-125 -128 0
-126 -127 0
-126 -128 0
-127 -128 0
17 18 0
17 28 0
18 28 0
-17 -18 -28 0
19 32 18 0
-18 -129 125 0
-18 -130 126 0
-18 -131 127 0
-18 -132 128 0
-19 -129 133 0
-19 -130 134 0
-19 -131 135 0
-19 -132 136 0
-32 -129 109 0
-32 -130 110 0
-32 -131 111 0
-32 -132 112 0
129 130 131 132 0
-129 -130 0
-129 -131 0
-129 -132 0
-130 -131 0
-130 -132 0
-131 -132 0
129 0
-18 -19 0
-18 -32 0
-19 -32 0
20 36 19 0
-19 -133 129 0
-19 -134 130 0
-19 -135 131 0
-19 -136 132 0
-20 -133 137 0
-20 -134 138 0
-20 -135 139 0
-20 -136 140 0
-36 -133 113 0
-36 -134 114 0
-36 -135 115 0
-36 -136 116 0
133 134 135 136 0
-133 -134 0
-133 -135 0
-133 -136 0
-134 -135 0
-134 -136 0
-135 -136 0
19 20 0
19 36 0
20 36 0
-19 -20 -36 0
20 40 0
-20 -137 133 0
-20 -138 134 0
-20 -139 135 0
-20 -140 136 0
-40 -137 117 0
-40 -138 118 0
-40 -139 119 0
-40 -140 120 0
137 138 139 140 0
-137 -138 0
-137 -139 0
-137 -140 0
-138 -139 0
-138 -140 0
-139 -140 0
40 0
20 0